max: 100f12 + 100f13 - 10q1 - 20q2;

1f12 + 2f13 - 1f23 + 2f24 + 3f34 <= 4q1 + 5q2;
1f12 + 2f13 - 2f23 + 1f24 + 4f34 <= 2q1 + 2q2;
5f12 + 5f34 <= q2;

f12 <= 5;
f12 >= 0;
f13 <= 2;
f13 >= 0;
f23 <= 0;
f23 >= -5;
f24 <= 2;
f24 >= 0;
f34 <= 5;
f34 >= 0;


f12 = f23 + f24;
f13 + f23 = f34;

q1 >= 0;
q2 >= 0;
